# Node Net
875   1
271   1
 21   1
301   1
895   2
873   2
661   2
270   2
 31   3
883   3
  5   3
 31   3
 25   4
 20   4
541   4
884   4
 90   5
 90   5
  7   5
872   5
  3   6
211   6
481   6
211   6
690   7
690   7
180   7
  2   7
898   8
841   8
900   8
841   8
150   9
 27   9
 11   9
811  10
889  10
691  10
890  11
891  11
